proyfinal/src/viki/013/experimentInOfficeAgust.take6.output/fe29d646-c43b-47ad-9d90-ad21c5bacd3d.als.out
Reading from standard input... Use '--help' for help.
============================[ Problem Statistics ]=============================
|                                                                             |
|  Number of variables:         87638                                         |
|  Number of clauses:          161767                                         |
|  Parse time:                   0.04 s                                       |
|                                                                             |
============================[ Search Statistics ]==============================
| Conflicts |          ORIGINAL         |          LEARNT          | Progress |
|           |    Vars  Clauses Literals |    Limit  Clauses Lit/Cl |          |
===============================================================================
|       100 |   65259   115627   288305 |    42396      100     12 | 25.536 % |
|       250 |   60028    98771   246484 |    46636      248     31 | 31.505 % |
|       475 |   60028    98771   246484 |    51299      473     48 | 31.505 % |
|       812 |   60028    98771   246484 |    56429      810     83 | 31.505 % |
|      1318 |   59886    98596   246044 |    62072     1312    107 | 31.667 % |
|      2077 |   58193    92467   230678 |    68280     1494    102 | 33.598 % |
|      3216 |   58190    92439   230622 |    75108     2631     94 | 33.602 % |
|      4924 |   57937    92317   230335 |    82618     4334     81 | 33.891 % |
|      7486 |   57923    91363   228036 |    90880     6890     67 | 33.907 % |
|     11330 |   57880    91151   227563 |    99968     9446     70 | 33.956 % |
|     17096 |   57813    90901   226988 |   109965    15189     64 | 34.032 % |
===============================================================================
restarts              : 73
conflicts             : 20700          (8693 /sec)
decisions             : 71989          (0.00 % random) (30232 /sec)
propagations          : 26271959       (11032913 /sec)
conflict literals     : 1330185        (44.56 % deleted)
Memory used           : 41.35 MB
CPU time              : 2.38124 s

UNSATISFIABLE
